
Gurobi 13.0.2 (win64) logging started Fri Jul 24 09:29:49 2026

Set parameter LogFile to value "E:\codes\ExactEBRP\results\gf_c0_mechanism_transfer_c5_round30\runs\stage2__moderate_seed5301__c5_candidate__300s\external\native_logs\L0.1.1.1.1.1_partial_target_mip.gurobi.log"
Gurobi Optimizer version 13.0.2 build v13.0.2rc1 (win64 - Windows 10.0 (19045.2))

CPU model: 12th Gen Intel(R) Core(TM) i7-12700KF, instruction set [SSE2|AVX|AVX2]
Thread count: 12 physical cores, 20 logical processors, using up to 1 threads

Non-default parameters:
TimeLimit  226.9539239
MIPGap  0
MIPGapAbs  0
LogToConsole  0
Threads  1

Optimize a model with 11944 rows, 3386 columns and 67436 nonzeros (Min)
Model fingerprint: 0x0cb89ce5
Model has 21 linear objective coefficients
Variable types: 1690 continuous, 1696 integer (1496 binary)
Coefficient statistics:
  Matrix range     [9e-03, 1e+04]
  Objective range  [9e-03, 1e+00]
  Bounds range     [4e-02, 2e+02]
  RHS range        [4e-02, 5e+04]

Presolve removed 997 rows and 82 columns
Presolve time: 0.19s
Presolved: 10947 rows, 3304 columns, 86969 nonzeros
Variable types: 1638 continuous, 1666 integer (1476 binary)

Root relaxation: objective 8.419387e-02, 3205 iterations, 0.17 seconds (0.46 work units)

    Nodes    |    Current Node    |     Objective Bounds      |     Work
 Expl Unexpl |  Obj  Depth IntInf | Incumbent    BestBd   Gap | It/Node Time

     0     0    0.08419    0  174          -    0.08419      -     -    0s

Explored 1 nodes (3205 simplex iterations) in 0.42 seconds (0.93 work units)
Thread count was 1 (of 20 available processors)

Solution count 0

Solve interrupted
Best objective -, best bound 8.419387497636e-02, gap -

User-callback calls 754, time in user-callback 0.00 sec
